
******************************************************************************
This program contains Ipopt, a library for large-scale nonlinear optimization.
 Ipopt is released as open source code under the Eclipse Public License (EPL).
         For more information visit https://github.com/coin-or/Ipopt
******************************************************************************

This is Ipopt version 3.14.19, running with linear solver MUMPS 5.8.1.

Number of nonzeros in equality constraint Jacobian...:     4389
Number of nonzeros in inequality constraint Jacobian.:        0
Number of nonzeros in Lagrangian Hessian.............:     1050

Total number of variables............................:     1287
                     variables with only lower bounds:        0
                variables with lower and upper bounds:      457
                     variables with only upper bounds:        0
Total number of equality constraints.................:     1274
Total number of inequality constraints...............:        0
        inequality constraints with only lower bounds:        0
   inequality constraints with lower and upper bounds:        0
        inequality constraints with only upper bounds:        0

iter    objective    inf_pr   inf_du lg(mu)  ||d||  lg(rg) alpha_du alpha_pr  ls
   0  9.8521416e+00 9.52e+01 4.45e-04  -1.0 0.00e+00    -  0.00e+00 0.00e+00   0
   1  9.8526452e+00 4.37e+01 4.27e+01  -1.0 9.42e+01    -  1.23e-02 5.41e-01h  1
   2  9.8835200e+00 6.86e+00 2.42e+01  -1.0 4.30e+01    -  7.29e-01 8.43e-01h  1
   3  9.8864219e+00 3.25e-03 2.72e+01  -1.0 6.46e+00    -  7.34e-01 1.00e+00h  1
   4  9.8717825e+00 2.14e-01 1.05e+01  -1.0 1.06e+00    -  8.67e-01 1.00e+00f  1
   5  9.8848449e+00 4.69e-02 8.78e-03  -1.0 5.62e+00    -  1.00e+00 1.00e+00h  1
   6  9.8823253e+00 3.21e-01 2.16e-03  -1.7 8.72e-01    -  1.00e+00 1.00e+00h  1
   7  9.8881189e+00 1.43e-02 1.04e-03  -1.7 1.74e+00    -  1.00e+00 1.00e+00h  1
   8  9.8847256e+00 7.04e-02 1.17e+00  -3.8 7.73e-01    -  7.60e-01 1.00e+00h  1
   9  9.8522744e+00 1.86e-02 3.15e-02  -3.8 8.45e+00    -  9.85e-01 1.00e+00h  1
iter    objective    inf_pr   inf_du lg(mu)  ||d||  lg(rg) alpha_du alpha_pr  ls
  10  9.8417771e+00 3.59e-03 4.43e-03  -3.8 4.82e+00    -  8.28e-01 1.00e+00h  1
  11  9.8408578e+00 3.99e-05 4.56e-05  -3.8 5.99e-01    -  1.00e+00 1.00e+00h  1
  12  9.8390351e+00 9.54e-05 8.59e-04  -5.7 7.32e-01    -  9.59e-01 1.00e+00h  1
  13  9.8389681e+00 1.55e-07 1.74e-07  -5.7 2.62e-02    -  1.00e+00 1.00e+00h  1
  14  9.8389439e+00 1.70e-08 2.55e-08  -8.6 9.63e-03    -  1.00e+00 1.00e+00h  1
  15  9.8389439e+00 1.42e-14 5.66e-15  -8.6 4.40e-06    -  1.00e+00 1.00e+00h  1

Number of Iterations....: 15

                                   (scaled)                 (unscaled)
Objective...............:   9.8389439137433481e+00    9.8389439137433481e+00
Dual infeasibility......:   5.6621374255882984e-15    5.6621374255882984e-15
Constraint violation....:   1.4210854715202004e-14    1.4210854715202004e-14
Variable bound violation:   0.0000000000000000e+00    0.0000000000000000e+00
Complementarity.........:   2.5475602816959393e-09    2.5475602816959393e-09
Overall NLP error.......:   2.5475602816959393e-09    2.5475602816959393e-09


Number of objective function evaluations             = 16
Number of objective gradient evaluations             = 16
Number of equality constraint evaluations            = 16
Number of inequality constraint evaluations          = 0
Number of equality constraint Jacobian evaluations   = 16
Number of inequality constraint Jacobian evaluations = 0
Number of Lagrangian Hessian evaluations             = 15
Total seconds in IPOPT                               = 0.087

EXIT: Optimal Solution Found.
